p ocr 23 10 70
2 24
6 24
10 24
11 24
12 24
15 24
16 24
18 24
21 24
23 24
4 25
5 25
8 25
10 25
19 25
22 25
1 26
2 26
13 26
18 26
22 26
2 27
7 27
11 27
12 27
13 27
18 27
19 27
23 27
24 27
1 28
10 28
11 28
12 28
17 28
20 28
22 28
24 28
1 29
6 29
13 29
16 29
17 29
18 29
22 29
23 29
8 30
14 30
15 30
16 30
23 30
4 31
8 31
17 31
18 31
24 31
4 32
5 32
15 32
16 32
23 32
4 33
6 33
7 33
10 33
13 33
17 33
19 33
21 33
22 33